1325.02 0
0 102 101 99 100 116 98 68 79 80 78 72 75 71 103 104 107 106 105 120 0
0 21 20 23 26 28 35 32 29 36 34 31 30 33 27 24 22 25 19 16 17 89 0
0 73 76 77 74 70 69 67 110 115 97 94 96 93 82 119 0
0 95 40 43 45 48 42 39 38 37 12 8 83 113 117 81 0
0 65 61 62 64 66 63 60 56 58 55 53 6 4 3 2 1 0
0 5 10 11 15 14 13 9 7 108 118 18 90 84 112 85 86 111 88 0
0 52 54 57 59 51 50 49 46 47 44 41 109 114 91 92 87 0